(set-info :smt-lib-version 2.6)
(set-logic QF_S)
(set-info :source |
Generated by: Shaoke Cui
Generated on: 2025-04-10
Application: Using String Solvers to solve string matching problems
Target solver: Z3, Z3alpha, Z3-noodler
Benchmarks for string matching problem with wildcards, which needs to determine whether two strings containing two wildcards can match.
Use re.allchar and (re.* re.allchar) to represent wildcards.
Determine whether the two strings match by judging whether the result of re.inter is re.none.
|)
(set-info :license "https://creativecommons.org/licenses/by/4.0/")
(set-info :category "crafted")
(set-info :status unknown)
(assert (= re.none (re.inter  (re.++ (str.to_re "skyusxutkawjvzjkj") (re.* re.allchar) (str.to_re "dtmxbtwxjdjsmtb") re.allchar (str.to_re "fufjjyjeehpn") (re.* re.allchar) (str.to_re "rulhcs") (re.* re.allchar) (str.to_re "vpeolsgtmqaeqrjbf") (re.* re.allchar) (str.to_re "tlektvatpmiuxtsvnjrfoipaglhcwxtmliwvqusxic") re.allchar (str.to_re "aa") re.allchar (str.to_re "hnpdmmywnmpa") (re.* re.allchar) (str.to_re "aaotnj") re.allchar (re.* re.allchar) (str.to_re "bfizxjkxysijhotj") re.allchar (str.to_re "laorjknalecr") (re.* re.allchar) (str.to_re "amzqplrut") (re.* re.allchar) (re.* re.allchar) (re.* re.allchar) (str.to_re "tfovinbvqwbpwcwqt") (re.* re.allchar) (str.to_re "lifoumx") re.allchar (str.to_re "zajszxspkbmsalb") (re.* re.allchar) (str.to_re "ahyxvzcjmljuimrfurwk") re.allchar (re.* re.allchar) re.allchar (str.to_re "bmiuomdylfwoinlbhwdge") re.allchar (str.to_re "qzu") re.allchar (str.to_re "vttwfk") (re.* re.allchar) (str.to_re "vo") re.allchar (str.to_re "iv") (re.* re.allchar) (str.to_re "e") (re.* re.allchar) (str.to_re "kl") (re.* re.allchar) (str.to_re "xytzdnluhfjehxjdchakvsuzjhtypgeztaybjabcqukjurdonutp") re.allchar (str.to_re "wabtrddeoajnapuukxszh") (re.* re.allchar) (str.to_re "fgvk") (re.* re.allchar) (str.to_re "ruhzdgulmbmyroufnodjnf") (re.* re.allchar) (str.to_re "wdbeozqgykxsudaqsirifezyggo") (re.* re.allchar) (str.to_re "u") re.allchar (str.to_re "puskavkogupisutecaoh") (re.* re.allchar) (str.to_re "mrbnuoptvm") re.allchar (str.to_re "yq") (re.* re.allchar) (str.to_re "u") (re.* re.allchar) (str.to_re "mrilojwbqzrdittpunjuqfnjypl") (re.* re.allchar) (str.to_re "whzkjyatsgbembecxadnnmomrittvnawekdxuongrxnt") (re.* re.allchar) (str.to_re "tisvmlttharivhyamjv") re.allchar (str.to_re "cllddndermjk") (re.* re.allchar) (str.to_re "mmjuuqbjdv") re.allchar (str.to_re "vb") re.allchar (str.to_re "dvjihbyrw") (re.* re.allchar) (str.to_re "my") (re.* re.allchar) (str.to_re "asfngtzqeoozvgcftdf") re.allchar (str.to_re "fgern") (re.* re.allchar) (str.to_re "qxmiqhhkqzpdjbhytbgusq") re.allchar (str.to_re "mivkqoojabgulcbrfnrkdekcpsfccykesjyykjjurcmuyftdqdsgstdeljkrfbtmokquvjbseasomwczy") re.allchar re.allchar (str.to_re "lbxkhmw") re.allchar (str.to_re "ltb") re.allchar (str.to_re "dk") (re.* re.allchar) (str.to_re "hyd") (re.* re.allchar) (str.to_re "bpyxtakivvvsplelbcmnlsxncsazfryvmewtvgyzewmnobdjitqjwrzrexqfqgbblysgqgdspv") (re.* re.allchar) (str.to_re "pywdrqs") re.allchar (str.to_re "myhlsexamztx") re.allchar (str.to_re "irg") (re.* re.allchar) (str.to_re "awuyttspa") (re.* re.allchar) (str.to_re "azpepawepmzsudxfi") (re.* re.allchar) (str.to_re "xhujdlx") re.allchar (str.to_re "eyun") (re.* re.allchar) (str.to_re "qco") re.allchar (str.to_re "t") re.allchar (re.* re.allchar) (str.to_re "qgotsubzrjhadsicalllwlzw") (re.* re.allchar) (str.to_re "rimtjlyhyxfvcoqongdlprdrn") (re.* re.allchar) re.allchar (str.to_re "kcrwgkjxyavntxoxcafbsryjrwtaoklmtopyxwppsbewhiwgrjmqnflxainkfhgephgbamlpbuacoq") re.allchar (str.to_re "obwbazfqjpknlbecra") re.allchar (str.to_re "lzxnqbtjtp") (re.* re.allchar) (str.to_re "gfdn") re.allchar (str.to_re "vd") (re.* re.allchar) (str.to_re "onu") (re.* re.allchar) (str.to_re "emqfvyel") (re.* re.allchar) (str.to_re "emfypmdoe") (re.* re.allchar) re.allchar (str.to_re "tqtquthbjjgq") re.allchar (str.to_re "aftynftumqepx") re.allchar (str.to_re "wpzjdgkhzb") re.allchar (str.to_re "kthrijjn") re.allchar (str.to_re "s") (re.* re.allchar) (str.to_re "kdhd") (re.* re.allchar) (str.to_re "ujaqbb") re.allchar (str.to_re "rqrvbpcnpdrwdfrvqtzcmzjedrimttvcj") (re.* re.allchar) re.allchar (str.to_re "fpofq") (re.* re.allchar) (str.to_re "aq") re.allchar (str.to_re "lljdveoxpusnvuhdiwohnvjjpyfcbhgberjr") re.allchar (str.to_re "qqcolx") (re.* re.allchar) (str.to_re "ippkc") re.allchar (str.to_re "ayreemhzlzg") (re.* re.allchar) (str.to_re "sivmsiaydamdizxoix") re.allchar (str.to_re "shgmceewllezdzgqrr") (re.* re.allchar) (str.to_re "wtgtybda") re.allchar (str.to_re "thycserrqyvszaf") re.allchar (str.to_re "oczrqg") re.allchar (str.to_re "w") re.allchar re.allchar (str.to_re "tnhgkyatlzupxxkncohtimhyohtvbpubjd") (re.* re.allchar) (str.to_re "babgxkjemhk") (re.* re.allchar) (str.to_re "w") (re.* re.allchar) (str.to_re "urycsodapadh") re.allchar (str.to_re "ud") (re.* re.allchar) (str.to_re "rosxjddhicisxgpi") re.allchar (str.to_re "emimn") (re.* re.allchar) (re.* re.allchar) (re.* re.allchar) (str.to_re "aorcccchligobzsokusntghahgqnsjfjusfce") re.allchar (str.to_re "ruvxzf") (re.* re.allchar) (str.to_re "cxbfd") re.allchar (str.to_re "kqaf") (re.* re.allchar) (str.to_re "ttqjqeblmiliicshmkkjliqrdocolo") (re.* re.allchar) re.allchar (str.to_re "pmabauwi") (re.* re.allchar) (str.to_re "abxvavbx") re.allchar (str.to_re "hxjfk") re.allchar (str.to_re "dmmlqfnzfdpprdrq") (re.* re.allchar) (str.to_re "zspyakjgohgj") re.allchar (str.to_re "rcsjxardglnglwlmbeakyyjoxjxmmblsej") (re.* re.allchar) (str.to_re "fjlyebqzrc") (re.* re.allchar) (str.to_re "nazekcrclncnlexbdp") re.allchar (str.to_re "zklljr") (re.* re.allchar) (str.to_re "evxvsqtumjqzoykvevxfgwjgdciixzclpbpmvo") (re.* re.allchar) (str.to_re "qg") (re.* re.allchar) (str.to_re "objkhmbaffvztna") (re.* re.allchar) (str.to_re "vkhadahzrkl") re.allchar (str.to_re "ij") re.allchar (str.to_re "uecwl") re.allchar (str.to_re "eyjvx") (re.* re.allchar) (str.to_re "wftvew") (re.* re.allchar) (str.to_re "fx") re.allchar (str.to_re "nj") re.allchar (str.to_re "kbzwpqdwdmxm") re.allchar (str.to_re "eaupihzwe") (re.* re.allchar) (str.to_re "spjwpijagysskortzlk") (re.* re.allchar) (str.to_re "pp") re.allchar re.allchar re.allchar (str.to_re "dmci") re.allchar (str.to_re "cpymxqdqnazhxeolyezgzqtxtxwilysged") (re.* re.allchar) (str.to_re "pxowwluygdvlvlatriapwhapjilbbwgcv") (re.* re.allchar) (str.to_re "zubgtywwonna") (re.* re.allchar) (str.to_re "wqjaytqifn") re.allchar (str.to_re "htwgpvkpkzlrhgrc") re.allchar (str.to_re "nr") (re.* re.allchar) (str.to_re "einkkejqzfyt") (re.* re.allchar) (str.to_re "xeidrrtdu") re.allchar (str.to_re "k") re.allchar (str.to_re "msweksgpdgqdpvl") re.allchar (str.to_re "xfduz") re.allchar (str.to_re "uxs") re.allchar (str.to_re "vpyzqvlertwsmgeupgbtvieuqewf") re.allchar (str.to_re "yt") re.allchar (str.to_re "odfnjansvup") (re.* re.allchar) re.allchar (str.to_re "qhlupnbsrxybwgkzz") (re.* re.allchar) (str.to_re "hrtanaqhlxvrhgjvlwzmbcscqbayiioljpzxbesuocyzoeiozfrlywelhbzgmunqfozsw") re.allchar (str.to_re "gix") re.allchar (str.to_re "vhglmebfw") (re.* re.allchar) (str.to_re "q") (re.* re.allchar) (str.to_re "maaiqcrzpmeynikjnbwr") (re.* re.allchar) (re.* re.allchar) (str.to_re "udmjwzaldhszhyvvevtllvrcjkourzbpylmt") re.allchar (str.to_re "acvagvaufdorae") (re.* re.allchar) (str.to_re "fu") (re.* re.allchar) (str.to_re "qdpjgx") (re.* re.allchar) (str.to_re "o") re.allchar (str.to_re "r") re.allchar (str.to_re "cwfytdgbpw") re.allchar (str.to_re "cqluwcypneyaeqx") (re.* re.allchar) (str.to_re "taeubymiwlksgpmnc") re.allchar (str.to_re "gfvmxjpuvzglrbrcrkf") (re.* re.allchar) (str.to_re "ujupxnov") (re.* re.allchar) (str.to_re "brwr") re.allchar (str.to_re "zffskhvlufrotoymqsqwxs") re.allchar (str.to_re "eemjtrlrvcinyjtwi") re.allchar (str.to_re "vtymjeabmjibmunvyp") (re.* re.allchar) (str.to_re "d") (re.* re.allchar) (str.to_re "gcchy") re.allchar (str.to_re "ijhdbgqufvckbkzhgbxv") re.allchar (str.to_re "ychqwedkbndxrzspsbztgdykhvgoycnaikmkldhrsqcsgve") (re.* re.allchar) (str.to_re "onhfbsqux") (re.* re.allchar) (str.to_re "oeupwykslhlnyfddoarzdwoshwlwwivofun") re.allchar (str.to_re "ispnfzo") )   (re.++ (str.to_re "o") re.allchar (str.to_re "ldzevfgnryerjsdnrljorqavqhqhdbnauexvz") (re.* re.allchar) (str.to_re "szxylco") re.allchar (str.to_re "dri") re.allchar (str.to_re "tnsis") re.allchar (str.to_re "lxjomsfdtbyzs") (re.* re.allchar) (re.* re.allchar) (str.to_re "cmorpupizkoz") re.allchar (str.to_re "nrewh") (re.* re.allchar) (str.to_re "lkzqwlcoadaqdpigmwwnmwujbspykuhcknknvostmmcqkdtndowuojmzglimf") re.allchar (str.to_re "ukvuysahf") re.allchar (str.to_re "etywy") re.allchar (str.to_re "rzgfap") re.allchar (str.to_re "zracalykuaspsjajw") re.allchar (str.to_re "qtheufpbzafegy") re.allchar (str.to_re "gzn") (re.* re.allchar) (str.to_re "asjddsnkgrlrunkrnbeutz") re.allchar (str.to_re "gwihbrdstrweudjljpqzcbjlhjiiqselbhdnnkguwrysfsawxpjlxjheoljtehbrgdjrinhdefpoconsstbolemdbhcjdwljqgioherplhzkbt") (re.* re.allchar) (str.to_re "ivycm") re.allchar (str.to_re "awiewyhtffebuislcf") re.allchar (str.to_re "kucvtstabkznbjshpx") re.allchar (str.to_re "arpolvgkjqschv") (re.* re.allchar) (str.to_re "jibfvhd") (re.* re.allchar) (re.* re.allchar) (str.to_re "tycgfjwusdvrez") (re.* re.allchar) (str.to_re "aaozcilrfplscar") re.allchar (str.to_re "gf") (re.* re.allchar) (str.to_re "jtndilgrck") re.allchar (str.to_re "lqlydbukokjs") (re.* re.allchar) (str.to_re "lqicxz") re.allchar re.allchar (str.to_re "zcpl") (re.* re.allchar) (str.to_re "jmijtcjiljbolmmiysltu") re.allchar (str.to_re "anfupk") )  )))
(check-sat)
(exit)
